NAME : LPS-n17-m121
COMMENT : (Lartu-Peter-Santi Plot, instance 5721 out of 39200. 17 customers.)
TYPE : CVRP
DIMENSION : 17
EDGE_WEIGHT_TYPE : EUC_2D
CAPACITY : 81
NODE_COORD_SECTION
 1 33 33
 2 79 89
 3 5 40
 4 45 99
 5 56 67
 6 77 37
 7 87 93
 8 54 89
 9 57 22
 10 80 95
 11 5 4
 12 44 28
 13 60 56
 14 61 47
 15 75 15
 16 86 76
 17 36 69
DEMAND_SECTION
1 0
2 63
3 16
4 50
5 53
6 72
7 45
8 81
9 12
10 37
11 60
12 14
13 8
14 48
15 40
16 21
17 62
DEPOT_SECTION
 1
 -1
EOF
